p cnf 704 1926
c max 1 2 3 4 5 6 7 8 9 10 11 12 13 14 15 16 17 18 19 20 21 22 23 24 25 26 27 28 29 30 31 32 0
c ind 33 34 35 36 37 38 39 40 41 42 43 44 45 46 47 48 49 50 51 52 53 54 55 56 57 58 59 60 61 62 63 64 65 66 67 68 69 70 71 72 73 74 75 76 77 78 79 80 81 82 83 84 85 86 87 88 89 90 91 92 93 94 95 96 97 98 99 100 101 102 103 104 105 106 107 108 109 110 111 112 113 114 115 116 117 118 119 120 121 122 123 124 125 126 127 128 129 130 131 132 133 134 135 136 137 138 139 140 141 142 143 144 145 146 147 148 149 150 151 152 153 154 155 156 157 158 159 160 161 162 163 164 165 166 167 168 169 170 171 172 173 174 175 176 177 178 179 180 181 182 183 184 185 186 187 188 189 190 191 192 193 194 195 196 197 198 199 200 201 202 203 204 205 206 207 208 209 210 211 212 213 214 215 216 217 218 219 220 221 222 223 224 225 226 227 228 229 230 231 232 233 234 235 236 237 238 239 240 241 242 243 244 245 246 247 248 249 250 251 252 253 254 255 256 257 258 259 260 261 262 263 264 265 266 267 268 269 270 271 272 273 274 275 276 277 278 279 280 281 282 283 284 285 286 287 288 289 290 291 292 293 294 295 296 297 298 299 300 301 302 303 304 305 306 307 308 309 310 311 312 313 314 315 316 317 318 319 320 321 322 323 324 325 326 327 328 329 330 331 332 333 334 335 336 337 338 339 340 341 342 343 344 345 346 347 348 349 350 351 352 353 354 355 356 357 358 359 360 361 362 363 364 365 366 367 368 369 370 371 372 373 374 375 376 377 378 379 380 381 382 383 384 385 386 387 388 389 390 391 392 393 394 395 396 397 398 399 400 401 402 403 404 405 406 407 408 409 410 411 412 413 414 415 416 417 418 419 420 421 422 423 424 425 426 427 428 429 430 431 432 433 434 435 436 437 438 439 440 441 442 443 444 445 446 447 448 449 450 451 452 453 454 455 456 457 458 459 460 461 462 463 464 465 466 467 468 469 470 471 472 473 474 475 476 477 478 479 480 481 482 483 484 485 486 487 488 489 490 491 492 493 494 495 496 497 498 499 500 501 502 503 504 505 506 507 508 509 510 511 512 513 514 515 516 517 518 519 520 521 522 523 524 525 526 527 528 529 530 531 532 533 534 535 536 537 538 539 540 541 542 543 544 545 546 547 548 549 550 551 552 553 554 555 556 557 558 559 560 561 562 563 564 565 566 567 568 569 570 571 572 573 574 575 576 577 578 579 580 581 582 583 584 585 586 587 588 589 590 591 592 593 594 595 596 597 598 599 600 601 602 603 604 605 606 607 608 609 610 611 612 613 614 615 616 617 618 619 620 621 622 623 624 625 626 627 628 629 630 631 632 633 634 635 636 637 638 639 640 641 642 643 644 645 646 647 648 649 650 651 652 653 654 655 656 657 658 659 660 661 662 663 664 665 666 667 668 669 670 671 672 673 674 675 676 677 678 679 680 681 682 683 684 685 686 687 688 689 690 691 692 693 694 695 696 697 698 699 700 701 702 703 704 0
33 30 0
-33 -30 0
34 29 0
-34 -29 0
35 15 0
-35 -15 0
36 26 0
-36 -26 0
37 28 0
-37 -28 0
38 19 0
-38 -19 0
39 16 0
-39 -16 0
40 16 0
-40 -16 0
41 1 0
-41 -1 0
42 2 0
-42 -2 0
43 3 0
-43 -3 0
44 4 0
-44 -4 0
45 5 0
-45 -5 0
46 6 0
-46 -6 0
47 7 0
-47 -7 0
48 8 0
-48 -8 0
49 9 0
-49 -9 0
50 10 0
-50 -10 0
51 11 0
-51 -11 0
52 12 0
-52 -12 0
53 13 0
-53 -13 0
54 14 0
-54 -14 0
55 27 0
-55 -27 0
-56 17 0
-56 7 0
56 -17 -7 0
-57 33 0
-57 44 0
57 -33 -44 0
-58 48 0
-58 47 0
58 -48 -47 0
59 -16 0
59 -7 0
-59 16 7 0
60 -17 0
60 -49 0
-60 17 49 0
61 -52 0
61 -10 0
-61 52 10 0
62 -46 0
62 -2 0
-62 46 2 0
63 -52 0
63 -8 0
-63 52 8 0
64 -47 0
64 -5 0
-64 47 5 0
65 -50 0
65 -48 0
-65 50 48 0
66 -7 0
66 -46 0
-66 7 46 0
67 -5 0
67 -4 0
-67 5 4 0
68 -50 0
68 -7 0
-68 50 7 0
69 -39 0
69 -7 0
-69 39 7 0
70 -50 0
70 -49 0
-70 50 49 0
71 -12 0
71 -51 0
-71 12 51 0
72 -51 0
72 -50 0
-72 51 50 0
73 -52 0
73 -11 0
-73 52 11 0
74 -6 0
74 -4 0
-74 6 4 0
75 51 0
75 10 0
-75 -51 -10 0
76 7 0
76 5 0
-76 -7 -5 0
77 73 0
77 72 0
-77 -73 -72 0
78 3 0
78 1 0
-78 -3 -1 0
79 4 0
79 2 0
-79 -4 -2 0
80 46 0
80 64 0
-80 -46 -64 0
81 11 0
81 9 0
-81 -11 -9 0
82 12 0
82 10 0
-82 -12 -10 0
83 4 0
83 1 0
-83 -4 -1 0
84 46 0
84 5 0
-84 -46 -5 0
85 9 0
85 48 0
-85 -9 -48 0
86 6 0
86 3 0
-86 -6 -3 0
87 5 0
87 4 0
-87 -5 -4 0
-542 16 0
-542 8 0
542 -16 -8 0
-541 542 0
-541 47 0
541 -542 -47 0
88 541 0
-88 -541 0
89 17 0
89 9 0
-89 -17 -9 0
90 10 0
90 7 0
-90 -10 -7 0
91 5 0
91 3 0
-91 -5 -3 0
92 4 0
92 43 0
-92 -4 -43 0
93 6 0
93 45 0
-93 -6 -45 0
94 6 0
94 4 0
-94 -6 -4 0
95 47 0
95 45 0
-95 -47 -45 0
96 81 0
96 8 0
-96 -81 -8 0
97 11 0
97 49 0
-97 -11 -49 0
98 6 0
98 44 0
-98 -6 -44 0
99 50 0
99 7 0
-99 -50 -7 0
100 44 0
100 3 0
-100 -44 -3 0
101 49 0
101 8 0
-101 -49 -8 0
102 94 0
102 5 0
-102 -94 -5 0
103 20 0
103 9 0
-103 -20 -9 0
104 22 0
104 47 0
-104 -22 -47 0
105 18 0
105 54 0
-105 -18 -54 0
106 35 0
106 1 0
-106 -35 -1 0
107 5 0
107 2 0
-107 -5 -2 0
108 11 0
108 8 0
-108 -11 -8 0
-544 38 0
-544 54 0
544 -38 -54 0
-543 544 0
-543 4 0
543 -544 -4 0
109 543 0
-109 -543 0
110 51 0
110 61 0
-110 -51 -61 0
111 99 0
111 68 0
-111 -99 -68 0
-112 -52 0
-112 -43 0
112 52 43 0
-113 -54 0
-113 -13 0
113 54 13 0
-114 -5 0
-114 -1 0
114 5 1 0
-115 -11 0
-115 -48 0
115 11 48 0
-116 -47 0
-116 -44 0
116 47 44 0
-117 -8 0
-117 -6 0
117 8 6 0
-118 -5 0
-118 -42 0
118 5 42 0
-119 -76 0
-119 -43 0
119 76 43 0
-120 -12 0
-120 -8 0
120 12 8 0
-121 -94 0
-121 -42 0
121 94 42 0
-122 -4 0
-122 -41 0
122 4 41 0
-123 -76 0
-123 -46 0
123 76 46 0
-124 -92 0
-124 -47 0
124 92 47 0
-125 -44 0
-125 -2 0
125 44 2 0
-126 -108 0
-126 -7 0
126 108 7 0
-127 -6 0
-127 -5 0
127 6 5 0
-128 -9 0
-128 -8 0
128 9 8 0
-129 -95 0
-129 -6 0
129 95 6 0
-130 -43 0
-130 -2 0
130 43 2 0
546 -76 0
546 -108 0
-546 76 108 0
545 -546 0
545 -50 0
-545 546 50 0
131 545 0
-131 -545 0
-132 -12 0
-132 -11 0
132 12 11 0
133 95 0
-133 -95 0
-134 84 0
-134 93 0
134 -84 -93 0
-135 124 0
-135 84 0
135 -124 -84 0
-136 126 0
-136 10 0
136 -126 -10 0
-547 75 0
-547 8 0
547 -75 -8 0
-137 547 0
-137 47 0
137 -547 -47 0
-138 124 0
-138 2 0
138 -124 -2 0
-139 22 0
-139 133 0
139 -22 -133 0
-140 131 0
-140 1 0
140 -131 -1 0
-141 125 0
-141 46 0
141 -125 -46 0
-142 122 0
-142 84 0
142 -122 -84 0
-143 122 0
-143 43 0
143 -122 -43 0
-144 4 0
-144 114 0
144 -4 -114 0
-145 115 0
-145 114 0
145 -115 -114 0
146 -47 0
146 -134 0
-146 47 134 0
147 97 0
-147 -97 0
148 60 0
-148 -60 0
149 -40 0
149 -85 0
-149 40 85 0
150 99 0
-150 -99 0
151 -78 0
151 -45 0
-151 78 45 0
152 107 0
-152 -107 0
153 -152 0
153 -83 0
-153 152 83 0
548 -97 0
548 -50 0
-548 97 50 0
154 -548 0
154 -8 0
-154 548 8 0
155 -100 0
155 -47 0
-155 100 47 0
156 108 0
-156 -108 0
157 78 0
-157 -78 0
158 -90 0
158 -12 0
-158 90 12 0
159 81 0
-159 -81 0
160 109 0
-160 -109 0
161 -101 0
161 -52 0
-161 101 52 0
162 -81 0
162 -8 0
-162 81 8 0
163 -81 0
163 -47 0
-163 81 47 0
164 -108 0
164 -10 0
-164 108 10 0
165 -96 0
165 -82 0
-165 96 82 0
166 -79 0
166 -6 0
-166 79 6 0
167 -94 0
167 -5 0
-167 94 5 0
168 -91 0
168 -7 0
-168 91 7 0
169 -84 0
169 -47 0
-169 84 47 0
170 93 0
-170 -93 0
549 -98 0
549 -3 0
-549 98 3 0
171 -549 0
171 -42 0
-171 549 42 0
550 -84 0
550 -92 0
-550 84 92 0
172 -550 0
172 -170 0
-172 550 170 0
173 -50 0
173 -159 0
-173 50 159 0
174 -81 0
174 -51 0
-174 81 51 0
175 132 0
-175 -132 0
176 82 0
-176 -82 0
177 109 0
-177 -109 0
178 80 0
-178 -80 0
179 9 0
179 176 0
-179 -9 -176 0
180 98 0
180 45 0
-180 -98 -45 0
181 87 0
181 93 0
-181 -87 -93 0
182 120 0
-182 -120 0
183 69 0
183 158 0
-183 -69 -158 0
184 71 0
184 161 0
-184 -71 -161 0
185 101 0
185 163 0
-185 -101 -163 0
186 96 0
186 162 0
-186 -96 -162 0
-552 102 0
-552 100 0
552 -102 -100 0
-551 552 0
-551 92 0
551 -552 -92 0
187 551 0
-187 -551 0
188 124 0
-188 -124 0
189 121 0
-189 -121 0
190 10 0
190 174 0
-190 -10 -174 0
191 113 0
-191 -113 0
192 60 0
192 97 0
-192 -60 -97 0
193 159 0
193 65 0
-193 -159 -65 0
194 147 0
194 176 0
-194 -147 -176 0
195 84 0
-195 -84 0
196 130 0
196 80 0
-196 -130 -80 0
197 152 0
197 41 0
-197 -152 -41 0
198 85 0
-198 -85 0
199 86 0
-199 -86 0
200 115 0
200 50 0
-200 -115 -50 0
-554 123 0
-554 176 0
554 -123 -176 0
-553 554 0
-553 11 0
553 -554 -11 0
201 553 0
-201 -553 0
202 79 0
-202 -79 0
203 92 0
-203 -92 0
204 179 0
-204 -179 0
-556 20 0
-556 156 0
556 -20 -156 0
-555 556 0
-555 70 0
555 -556 -70 0
205 555 0
-205 -555 0
206 75 0
-206 -75 0
207 94 0
-207 -94 0
208 76 0
-208 -76 0
-558 127 0
-558 21 0
558 -127 -21 0
-559 558 0
-559 12 0
559 -558 -12 0
-557 559 0
-557 4 0
557 -559 -4 0
209 557 0
-209 -557 0
-561 148 0
-561 88 0
561 -148 -88 0
-560 561 0
-560 173 0
560 -561 -173 0
210 560 0
-210 -560 0
211 128 0
211 190 0
-211 -128 -190 0
212 193 0
-212 -193 0
213 132 0
213 129 0
-213 -132 -129 0
214 206 0
214 48 0
-214 -206 -48 0
215 184 0
215 50 0
-215 -184 -50 0
216 194 0
-216 -194 0
-563 94 0
-563 66 0
563 -94 -66 0
-562 563 0
-562 155 0
562 -563 -155 0
217 562 0
-217 -562 0
218 59 0
-218 -59 0
-219 102 0
-219 62 0
219 -102 -62 0
-220 195 0
-220 44 0
220 -195 -44 0
-221 -175 0
-221 -10 0
221 175 10 0
-222 187 0
-222 7 0
222 -187 -7 0
-223 -200 0
-223 -52 0
223 200 52 0
-224 -179 0
-224 -11 0
224 179 11 0
-225 206 0
-225 198 0
225 -206 -198 0
-226 -182 0
-226 -9 0
226 182 9 0
227 196 0
-227 -196 0
-228 51 0
-228 218 0
228 -51 -218 0
-564 89 0
-564 88 0
564 -89 -88 0
-229 564 0
-229 221 0
229 -564 -221 0
-565 120 0
-565 10 0
565 -120 -10 0
-230 565 0
-230 192 0
230 -565 -192 0
-231 118 0
-231 207 0
231 -118 -207 0
-566 208 0
-566 86 0
566 -208 -86 0
-232 566 0
-232 2 0
232 -566 -2 0
233 -219 0
233 -43 0
-233 219 43 0
234 -176 0
234 -51 0
-234 176 51 0
235 200 0
-235 -200 0
-567 150 0
-567 147 0
567 -150 -147 0
-568 567 0
-568 117 0
568 -567 -117 0
-236 568 0
-236 44 0
236 -568 -44 0
237 -108 0
237 -204 0
-237 108 204 0
238 -188 0
238 -6 0
-238 188 6 0
239 -84 0
239 -203 0
-239 84 203 0
240 -178 0
240 -92 0
-240 178 92 0
-569 115 0
-569 23 0
569 -115 -23 0
-570 569 0
-570 207 0
570 -569 -207 0
-241 570 0
-241 9 0
241 -570 -9 0
242 -208 0
242 -44 0
-242 208 44 0
243 -6 0
243 -152 0
-243 6 152 0
244 -207 0
244 -43 0
-244 207 43 0
245 -157 0
245 -42 0
-245 157 42 0
571 -200 0
571 -9 0
-571 200 9 0
246 -571 0
246 -7 0
-246 571 7 0
-247 200 0
-247 214 0
247 -200 -214 0
-248 183 0
-248 8 0
248 -183 -8 0
249 -200 0
249 -49 0
-249 200 49 0
250 -195 0
250 -2 0
-250 195 2 0
-251 224 0
-251 7 0
251 -224 -7 0
-572 215 0
-572 194 0
572 -215 -194 0
-252 572 0
-252 193 0
252 -572 -193 0
253 -206 0
253 -85 0
-253 206 85 0
-254 212 0
-254 20 0
254 -212 -20 0
-255 176 0
-255 49 0
255 -176 -49 0
-256 77 0
-256 198 0
256 -77 -198 0
-257 206 0
-257 85 0
257 -206 -85 0
258 -208 0
258 -46 0
-258 208 46 0
259 -202 0
259 -43 0
-259 202 43 0
-573 20 0
-573 186 0
573 -20 -186 0
-260 573 0
-260 10 0
260 -573 -10 0
261 -195 0
261 -41 0
-261 195 41 0
262 -197 0
262 -44 0
-262 197 44 0
-575 258 0
-575 169 0
575 -258 -169 0
-574 575 0
-574 168 0
574 -575 -168 0
263 574 0
-263 -574 0
-264 185 0
-264 50 0
264 -185 -50 0
265 201 0
265 213 0
-265 -201 -213 0
-576 176 0
-576 108 0
576 -176 -108 0
-266 576 0
-266 7 0
266 -576 -7 0
267 250 0
267 67 0
-267 -250 -67 0
-577 180 0
-577 2 0
577 -180 -2 0
-268 577 0
-268 41 0
268 -577 -41 0
269 4 0
269 208 0
-269 -4 -208 0
270 151 0
270 245 0
-270 -151 -245 0
271 2 0
271 261 0
-271 -2 -261 0
272 253 0
272 164 0
-272 -253 -164 0
-273 202 0
-273 263 0
273 -202 -263 0
274 106 0
274 262 0
-274 -106 -262 0
-579 211 0
-579 59 0
579 -211 -59 0
-578 579 0
-578 210 0
578 -579 -210 0
275 578 0
-275 -578 0
276 95 0
276 242 0
-276 -95 -242 0
-277 227 0
-277 4 0
277 -227 -4 0
278 206 0
278 8 0
-278 -206 -8 0
-580 123 0
-580 223 0
580 -123 -223 0
-279 580 0
-279 9 0
279 -580 -9 0
280 195 0
280 3 0
-280 -195 -3 0
-581 125 0
-581 133 0
581 -125 -133 0
-281 581 0
-281 49 0
281 -581 -49 0
282 44 0
282 233 0
-282 -44 -233 0
283 156 0
283 204 0
-283 -156 -204 0
284 226 0
284 206 0
-284 -226 -206 0
285 208 0
285 44 0
-285 -208 -44 0
286 269 0
-286 -269 0
287 202 0
287 45 0
-287 -202 -45 0
288 207 0
288 43 0
-288 -207 -43 0
-583 47 0
-583 3 0
583 -47 -3 0
-582 583 0
-582 243 0
582 -583 -243 0
289 582 0
-289 -582 0
290 226 0
290 51 0
-290 -226 -51 0
-585 221 0
-585 47 0
585 -221 -47 0
-584 585 0
-584 46 0
584 -585 -46 0
291 584 0
-291 -584 0
292 217 0
292 45 0
-292 -217 -45 0
-586 235 0
-586 127 0
586 -235 -127 0
-293 586 0
-293 116 0
293 -586 -116 0
-294 131 0
-294 207 0
294 -131 -207 0
-295 84 0
-295 203 0
295 -84 -203 0
296 270 0
296 44 0
-296 -270 -44 0
-297 130 0
-297 181 0
297 -130 -181 0
298 272 0
298 12 0
-298 -272 -12 0
299 249 0
299 154 0
-299 -249 -154 0
300 280 0
-300 -280 0
-588 219 0
-588 167 0
588 -219 -167 0
-587 588 0
-587 166 0
587 -588 -166 0
301 587 0
-301 -587 0
302 63 0
302 234 0
-302 -63 -234 0
-303 150 0
-303 24 0
303 -150 -24 0
304 288 0
304 244 0
-304 -288 -244 0
-590 278 0
-590 237 0
590 -278 -237 0
-589 590 0
-589 149 0
589 -590 -149 0
305 589 0
-305 -589 0
-306 285 0
-306 92 0
306 -285 -92 0
-307 -49 0
-307 -247 0
307 49 247 0
-591 126 0
-591 195 0
591 -126 -195 0
-308 591 0
-308 204 0
308 -591 -204 0
593 -269 0
593 -52 0
-593 269 52 0
592 -593 0
592 -6 0
-592 593 6 0
309 592 0
-309 -592 0
-310 128 0
-310 265 0
310 -128 -265 0
-311 276 0
-311 6 0
311 -276 -6 0
-312 -284 0
-312 -46 0
312 284 46 0
-313 -297 0
-313 -295 0
313 297 295 0
595 -277 0
595 -273 0
-595 277 273 0
594 -595 0
594 -138 0
-594 595 138 0
314 594 0
-314 -594 0
315 -287 0
315 -47 0
-315 287 47 0
316 -310 0
316 -308 0
-316 310 308 0
-317 290 0
-317 283 0
317 -290 -283 0
318 -241 0
318 -236 0
-318 241 236 0
596 -257 0
596 -256 0
-596 257 256 0
319 -596 0
319 -255 0
-319 596 255 0
320 -299 0
320 -225 0
-320 299 225 0
321 -56 0
321 -248 0
-321 56 248 0
-322 319 0
-322 7 0
322 -319 -7 0
323 -282 0
323 -195 0
-323 282 195 0
324 -264 0
324 -137 0
-324 264 137 0
325 201 0
325 291 0
-325 -201 -291 0
-598 285 0
-598 239 0
598 -285 -239 0
-597 598 0
-597 238 0
597 -598 -238 0
326 597 0
-326 -597 0
-327 324 0
-327 12 0
327 -324 -12 0
328 18 0
328 305 0
-328 -18 -305 0
329 305 0
-329 -305 0
-600 288 0
-600 259 0
600 -288 -259 0
-599 600 0
-599 74 0
599 -600 -74 0
330 599 0
-330 -599 0
331 299 0
-331 -299 0
332 -322 0
332 -136 0
-332 322 136 0
333 -294 0
333 -293 0
-333 294 293 0
-334 301 0
-334 1 0
334 -301 -1 0
335 328 0
-335 -328 0
-602 197 0
-602 296 0
602 -197 -296 0
-601 602 0
-601 153 0
601 -602 -153 0
336 601 0
-336 -601 0
337 299 0
-337 -299 0
338 285 0
338 146 0
-338 -285 -146 0
339 284 0
339 283 0
-339 -284 -283 0
-340 312 0
-340 5 0
340 -312 -5 0
341 282 0
341 1 0
-341 -282 -1 0
342 298 0
342 165 0
-342 -298 -165 0
-604 1 0
-604 323 0
604 -1 -323 0
-603 604 0
-603 172 0
603 -604 -172 0
343 603 0
-343 -603 0
605 -311 0
605 -222 0
-605 311 222 0
344 -605 0
344 -220 0
-344 605 220 0
345 283 0
-345 -283 0
346 286 0
346 42 0
-346 -286 -42 0
347 -46 0
347 -306 0
-347 46 306 0
-607 345 0
-607 208 0
607 -345 -208 0
-606 607 0
-606 207 0
606 -607 -207 0
348 606 0
-348 -606 0
-608 207 0
-608 271 0
608 -207 -271 0
-349 608 0
-349 5 0
349 -608 -5 0
-350 129 0
-350 345 0
350 -129 -345 0
-351 128 0
-351 325 0
351 -128 -325 0
-610 123 0
-610 299 0
610 -123 -299 0
-609 610 0
-609 12 0
609 -610 -12 0
352 609 0
-352 -609 0
-353 309 0
-353 307 0
353 -309 -307 0
354 346 0
-354 -346 0
355 312 0
355 286 0
-355 -312 -286 0
356 344 0
356 2 0
-356 -344 -2 0
357 330 0
357 5 0
-357 -330 -5 0
-358 343 0
-358 42 0
358 -343 -42 0
-359 341 0
-359 45 0
359 -341 -45 0
360 346 0
360 315 0
-360 -346 -315 0
361 -86 0
361 -286 0
-361 86 286 0
-611 121 0
-611 119 0
611 -121 -119 0
-362 611 0
-362 339 0
362 -611 -339 0
-613 280 0
-613 240 0
613 -280 -240 0
-612 613 0
-612 361 0
612 -613 -361 0
363 612 0
-363 -612 0
-364 275 0
-364 12 0
364 -275 -12 0
-615 196 0
-615 289 0
615 -196 -289 0
-614 615 0
-614 356 0
614 -615 -356 0
365 614 0
-365 -614 0
-366 360 0
-366 9 0
366 -360 -9 0
-616 114 0
-616 318 0
616 -114 -318 0
-367 616 0
-367 12 0
367 -616 -12 0
-368 -337 0
-368 -6 0
368 337 6 0
-369 -328 0
-369 -13 0
369 328 13 0
-370 -335 0
-370 -14 0
370 335 14 0
-371 267 0
-371 3 0
371 -267 -3 0
372 -331 0
372 -47 0
-372 331 47 0
373 -140 0
373 -303 0
-373 140 303 0
374 -139 0
374 -279 0
-374 139 279 0
-375 316 0
-375 44 0
375 -316 -44 0
-376 369 0
-376 300 0
376 -369 -300 0
-617 309 0
-617 320 0
617 -309 -320 0
-377 617 0
-377 43 0
377 -617 -43 0
-378 -6 0
-378 -317 0
378 6 317 0
-379 -327 0
-379 -266 0
379 327 266 0
-380 321 0
-380 9 0
380 -321 -9 0
-381 -351 0
-381 -350 0
381 351 350 0
-382 338 0
-382 3 0
382 -338 -3 0
-619 292 0
-619 280 0
619 -292 -280 0
-618 619 0
-618 347 0
618 -619 -347 0
383 618 0
-383 -618 0
384 368 0
-384 -368 0
385 -231 0
385 -371 0
-385 231 371 0
386 -334 0
386 -268 0
-386 334 268 0
387 368 0
-387 -368 0
-388 354 0
-388 224 0
388 -354 -224 0
-621 355 0
-621 209 0
621 -355 -209 0
-620 621 0
-620 348 0
620 -621 -348 0
389 620 0
-389 -620 0
390 -359 0
390 -143 0
-390 359 143 0
622 -142 0
622 -141 0
-622 142 141 0
391 -622 0
391 -349 0
-391 622 349 0
-392 216 0
-392 360 0
392 -216 -360 0
393 348 0
-393 -348 0
394 365 0
394 14 0
-394 -365 -14 0
-395 385 0
-395 7 0
395 -385 -7 0
-623 391 0
-623 219 0
623 -391 -219 0
-396 623 0
-396 3 0
396 -623 -3 0
397 -388 0
397 -392 0
-397 388 392 0
-398 390 0
-398 46 0
398 -390 -46 0
399 305 0
399 365 0
-399 -305 -365 0
400 -382 0
400 -135 0
-400 382 135 0
401 372 0
401 246 0
-401 -372 -246 0
402 369 0
-402 -369 0
-403 -402 0
-403 -14 0
403 402 14 0
-404 -399 0
-404 -42 0
404 399 42 0
-624 403 0
-624 207 0
624 -403 -207 0
-405 624 0
-405 91 0
405 -624 -91 0
-406 -387 0
-406 -269 0
406 387 269 0
-407 -384 0
-407 -5 0
407 384 5 0
-408 393 0
-408 1 0
408 -393 -1 0
-409 20 0
-409 342 0
409 -20 -342 0
-410 404 0
-410 326 0
410 -404 -326 0
-411 -107 0
-411 -399 0
411 107 399 0
-625 403 0
-625 199 0
625 -403 -199 0
-412 625 0
-412 87 0
412 -625 -87 0
413 -57 0
413 -353 0
-413 57 353 0
414 -366 0
414 -281 0
-414 366 281 0
-626 404 0
-626 113 0
626 -404 -113 0
-415 626 0
-415 383 0
415 -626 -383 0
-416 105 0
-416 394 0
416 -105 -394 0
-417 406 0
-417 12 0
417 -406 -12 0
418 411 0
-418 -411 0
-419 389 0
-419 3 0
419 -389 -3 0
-627 403 0
-627 25 0
627 -403 -25 0
-420 627 0
-420 5 0
420 -627 -5 0
629 -329 0
629 -13 0
-629 329 13 0
628 -629 0
628 -416 0
-628 629 416 0
421 628 0
-421 -628 0
-631 357 0
-631 287 0
631 -357 -287 0
-630 631 0
-630 171 0
630 -631 -171 0
422 630 0
-422 -630 0
-423 -251 0
-423 -380 0
423 251 380 0
-424 352 0
-424 104 0
424 -352 -104 0
425 399 0
-425 -399 0
633 -358 0
633 -228 0
-633 358 228 0
634 -633 0
634 -58 0
-634 633 58 0
632 -634 0
632 -396 0
-632 634 396 0
426 632 0
-426 -632 0
635 -399 0
635 -152 0
-635 399 152 0
427 -635 0
427 -46 0
-427 635 46 0
-636 34 0
-636 425 0
636 -34 -425 0
-428 636 0
-428 14 0
428 -636 -14 0
-429 397 0
-429 48 0
429 -397 -48 0
-430 223 0
-430 414 0
430 -223 -414 0
637 -399 0
637 -91 0
-637 399 91 0
431 -637 0
431 -2 0
-431 637 2 0
432 -418 0
432 -92 0
-432 418 92 0
433 432 0
433 431 0
-433 -432 -431 0
-434 403 0
-434 400 0
434 -403 -400 0
435 411 0
-435 -411 0
436 -417 0
436 -375 0
-436 417 375 0
-437 433 0
-437 6 0
437 -433 -6 0
-438 -4 0
-438 -424 0
438 4 424 0
-439 -191 0
-439 -425 0
439 191 425 0
440 -430 0
440 -429 0
-440 430 429 0
441 -410 0
441 -437 0
-441 410 437 0
442 -395 0
442 -232 0
-442 395 232 0
-443 407 0
-443 12 0
443 -407 -12 0
444 -408 0
444 -367 0
-444 408 367 0
-445 438 0
-445 43 0
445 -438 -43 0
-446 113 0
-446 441 0
446 -113 -441 0
447 -398 0
447 -144 0
-447 398 144 0
448 -435 0
448 -6 0
-448 435 6 0
638 -445 0
638 -419 0
-638 445 419 0
449 -638 0
449 -377 0
-449 638 377 0
-639 440 0
-639 46 0
639 -440 -46 0
-450 639 0
-450 3 0
450 -639 -3 0
451 -340 0
451 -443 0
-451 340 443 0
452 448 0
452 427 0
-452 -448 -427 0
-641 444 0
-641 3 0
641 -444 -3 0
-640 641 0
-640 2 0
640 -641 -2 0
453 640 0
-453 -640 0
-454 84 0
-454 447 0
454 -84 -447 0
455 449 0
-455 -449 0
-642 113 0
-642 452 0
642 -113 -452 0
-456 642 0
-456 3 0
456 -642 -3 0
457 453 0
-457 -453 0
458 370 0
458 449 0
-458 -370 -449 0
459 -362 0
459 -450 0
-459 362 450 0
644 -454 0
644 -364 0
-644 454 364 0
645 -644 0
645 -230 0
-645 644 230 0
643 -645 0
643 -229 0
-643 645 229 0
460 643 0
-460 -643 0
-646 113 0
-646 442 0
646 -113 -442 0
-461 646 0
-461 425 0
461 -646 -425 0
462 458 0
-462 -458 0
463 460 0
463 32 0
-463 -460 -32 0
464 459 0
-464 -459 0
-465 439 0
-465 464 0
465 -439 -464 0
466 463 0
-466 -463 0
467 -458 0
467 -13 0
-467 458 13 0
468 459 0
-468 -459 0
-469 -458 0
-469 -3 0
469 458 3 0
-470 469 0
-470 286 0
470 -469 -286 0
-471 -463 0
-471 -53 0
471 463 53 0
648 -466 0
648 -14 0
-648 466 14 0
647 -648 0
647 -53 0
-647 648 53 0
472 647 0
-472 -647 0
650 -425 0
650 -468 0
-650 425 468 0
649 -650 0
649 -54 0
-649 650 54 0
473 649 0
-473 -649 0
-474 473 0
-474 2 0
474 -473 -2 0
475 469 0
-475 -469 0
-651 471 0
-651 118 0
651 -471 -118 0
-476 651 0
-476 1 0
476 -651 -1 0
477 439 0
477 459 0
-477 -439 -459 0
478 472 0
478 457 0
-478 -472 -457 0
-652 370 0
-652 455 0
652 -370 -455 0
-479 652 0
-479 53 0
479 -652 -53 0
-480 -376 0
-480 -476 0
480 376 476 0
-481 -475 0
-481 -13 0
481 475 13 0
654 -189 0
654 -478 0
-654 189 478 0
653 -654 0
653 -49 0
-653 654 49 0
482 653 0
-482 -653 0
483 473 0
-483 -473 0
-484 481 0
-484 436 0
484 -481 -436 0
-485 -483 0
-485 -2 0
485 483 2 0
-486 406 0
-486 485 0
486 -406 -485 0
-487 438 0
-487 481 0
487 -438 -481 0
488 -462 0
488 -474 0
-488 462 474 0
-655 307 0
-655 485 0
655 -307 -485 0
-489 655 0
-489 195 0
489 -655 -195 0
-656 119 0
-656 485 0
656 -119 -485 0
-490 656 0
-490 4 0
490 -656 -4 0
-491 407 0
-491 488 0
491 -407 -488 0
-657 24 0
-657 482 0
657 -24 -482 0
-492 657 0
-492 23 0
492 -657 -23 0
-493 482 0
-493 373 0
493 -482 -373 0
-494 472 0
-494 453 0
494 -472 -453 0
-658 469 0
-658 374 0
658 -469 -374 0
-495 658 0
-495 44 0
495 -658 -44 0
659 -465 0
659 -494 0
-659 465 494 0
496 -659 0
496 -479 0
-496 659 479 0
-660 333 0
-660 488 0
660 -333 -488 0
-497 660 0
-497 9 0
497 -660 -9 0
498 -470 0
498 -490 0
-498 470 490 0
499 471 0
-499 -471 0
-662 477 0
-662 478 0
662 -477 -478 0
-661 662 0
-661 467 0
661 -662 -467 0
500 661 0
-500 -661 0
-663 116 0
-663 451 0
663 -116 -451 0
-664 663 0
-664 488 0
664 -663 -488 0
-501 664 0
-501 3 0
501 -664 -3 0
502 -491 0
502 -489 0
-502 491 489 0
-665 117 0
-665 216 0
665 -117 -216 0
-503 665 0
-503 498 0
503 -665 -498 0
504 -486 0
504 -497 0
-504 486 497 0
-505 504 0
-505 53 0
505 -504 -53 0
506 -493 0
506 -505 0
-506 493 505 0
-666 116 0
-666 502 0
666 -116 -502 0
-507 666 0
-507 53 0
507 -666 -53 0
-508 481 0
-508 413 0
508 -481 -413 0
-509 -499 0
-509 -14 0
509 499 14 0
-510 112 0
-510 506 0
510 -112 -506 0
-667 509 0
-667 422 0
667 -509 -422 0
-511 667 0
-511 1 0
511 -667 -1 0
-668 509 0
-668 336 0
668 -509 -336 0
-512 668 0
-512 6 0
512 -668 -6 0
513 -507 0
513 -492 0
-513 507 492 0
669 -495 0
669 -428 0
-669 495 428 0
670 -669 0
670 -503 0
-670 669 503 0
514 -670 0
514 -501 0
-514 670 501 0
-515 514 0
-515 53 0
515 -514 -53 0
516 -515 0
516 -511 0
-516 515 511 0
-517 509 0
-517 37 0
517 -509 -37 0
518 509 0
518 7 0
-518 -509 -7 0
-671 509 0
-671 152 0
671 -509 -152 0
-519 671 0
-519 83 0
519 -671 -83 0
-520 103 0
-520 518 0
520 -103 -518 0
672 -446 0
672 -512 0
-672 446 512 0
521 -672 0
521 -420 0
-521 672 420 0
522 -484 0
522 -510 0
-522 484 510 0
673 -160 0
673 -415 0
-673 160 415 0
674 -673 0
674 -412 0
-674 673 412 0
523 -674 0
523 -519 0
-523 674 519 0
-524 112 0
-524 513 0
524 -112 -513 0
-525 509 0
-525 36 0
525 -509 -36 0
-675 509 0
-675 386 0
675 -509 -386 0
-526 675 0
-526 3 0
526 -675 -3 0
-527 509 0
-527 332 0
527 -509 -332 0
-528 509 0
-528 274 0
528 -509 -274 0
529 -409 0
529 -517 0
-529 409 517 0
530 -487 0
530 -526 0
-530 487 526 0
531 -518 0
531 -252 0
-531 518 252 0
-676 509 0
-676 156 0
676 -509 -156 0
-532 676 0
-532 90 0
532 -676 -90 0
533 -508 0
533 -524 0
-533 508 524 0
677 -434 0
677 -525 0
-677 434 525 0
534 -677 0
534 -461 0
-534 677 461 0
678 -177 0
678 -528 0
-678 177 528 0
679 -678 0
679 -405 0
-679 678 405 0
535 -679 0
535 -456 0
-535 679 456 0
536 -527 0
536 -260 0
-536 527 260 0
537 -278 0
537 -520 0
-537 278 520 0
538 537 0
-538 -537 0
-681 537 0
-681 531 0
681 -537 -531 0
-680 681 0
-680 205 0
680 -681 -205 0
539 680 0
-539 -680 0
683 -538 0
683 -254 0
-683 538 254 0
682 -683 0
682 -532 0
-682 683 532 0
540 682 0
-540 -682 0
-684 426 381 0
-684 -426 -381 0
684 -426 381 0
684 426 -381 0
-685 684 423 0
-685 -684 -423 0
685 -684 423 0
685 684 -423 0
-686 685 539 0
-686 -685 -539 0
686 -685 539 0
686 685 -539 0
686 0
-687 426 381 0
-687 -426 -381 0
687 -426 381 0
687 426 -381 0
-688 687 423 0
-688 -687 -423 0
688 -687 423 0
688 687 -423 0
-689 688 539 0
-689 -688 -539 0
689 -688 539 0
689 688 -539 0
689 0
-690 426 381 0
-690 -426 -381 0
690 -426 381 0
690 426 -381 0
-691 690 423 0
-691 -690 -423 0
691 -690 423 0
691 690 -423 0
-692 691 539 0
-692 -691 -539 0
692 -691 539 0
692 691 -539 0
692 0
-693 426 381 0
-693 -426 -381 0
693 -426 381 0
693 426 -381 0
-694 693 423 0
-694 -693 -423 0
694 -693 423 0
694 693 -423 0
-695 694 539 0
-695 -694 -539 0
695 -694 539 0
695 694 -539 0
695 0
-696 426 381 0
-696 -426 -381 0
696 -426 381 0
696 426 -381 0
-697 696 423 0
-697 -696 -423 0
697 -696 423 0
697 696 -423 0
-698 697 539 0
-698 -697 -539 0
698 -697 539 0
698 697 -539 0
698 0
-699 426 381 0
-699 -426 -381 0
699 -426 381 0
699 426 -381 0
-700 699 423 0
-700 -699 -423 0
700 -699 423 0
700 699 -423 0
-701 700 539 0
-701 -700 -539 0
701 -700 539 0
701 700 -539 0
701 0
-702 426 381 0
-702 -426 -381 0
702 -426 381 0
702 426 -381 0
-703 702 423 0
-703 -702 -423 0
703 -702 423 0
703 702 -423 0
-704 703 539 0
-704 -703 -539 0
704 -703 539 0
704 703 -539 0
704 0
